\ENCODING=ISO-8859-1
\Problem name: ilog.cplex

Minimize
 obj1: 364 x2 + 614 x3 + 648 x4 + 482 x5 + 220 x6 + 532 x7 + 226 x8 + 432 x9
       + 800 x10 + 364 x11 + 270 x13 + 350 x14 + 504 x15 + 338 x16 + 180 x17
       + 484 x18 + 366 x19 + 436 x20 + 614 x21 + 270 x22 + 130 x24 + 552 x25
       + 512 x26 + 230 x27 + 672 x28 + 406 x29 + 266 x30 + 648 x31 + 350 x32
       + 130 x33 + 480 x35 + 506 x36 + 354 x37 + 660 x38 + 346 x39 + 372 x40
       + 482 x41 + 504 x42 + 552 x43 + 480 x44 + 264 x46 + 658 x47 + 324 x48
       + 148 x49 + 818 x50 + 220 x51 + 338 x52 + 512 x53 + 506 x54 + 264 x55
       + 520 x57 + 158 x58 + 222 x59 + 748 x60 + 532 x61 + 180 x62 + 230 x63
       + 354 x64 + 658 x65 + 520 x66 + 666 x68 + 510 x69 + 274 x70 + 226 x71
       + 484 x72 + 672 x73 + 660 x74 + 324 x75 + 158 x76 + 666 x77 + 348 x79
       + 904 x80 + 432 x81 + 366 x82 + 406 x83 + 346 x84 + 148 x85 + 222 x86
       + 510 x87 + 348 x88 + 670 x90 + 800 x91 + 436 x92 + 266 x93 + 372 x94
       + 818 x95 + 748 x96 + 274 x97 + 904 x98 + 670 x99 + 364 x102 + 614 x103
       + 648 x104 + 482 x105 + 220 x106 + 532 x107 + 226 x108 + 432 x109
       + 800 x110 + 364 x111 + 270 x113 + 350 x114 + 504 x115 + 338 x116
       + 180 x117 + 484 x118 + 366 x119 + 436 x120 + 614 x121 + 270 x122
       + 130 x124 + 552 x125 + 512 x126 + 230 x127 + 672 x128 + 406 x129
       + 266 x130 + 648 x131 + 350 x132 + 130 x133 + 480 x135 + 506 x136
       + 354 x137 + 660 x138 + 346 x139 + 372 x140 + 482 x141 + 504 x142
       + 552 x143 + 480 x144 + 264 x146 + 658 x147 + 324 x148 + 148 x149
       + 818 x150 + 220 x151 + 338 x152 + 512 x153 + 506 x154 + 264 x155
       + 520 x157 + 158 x158 + 222 x159 + 748 x160 + 532 x161 + 180 x162
       + 230 x163 + 354 x164 + 658 x165 + 520 x166 + 666 x168 + 510 x169
       + 274 x170 + 226 x171 + 484 x172 + 672 x173 + 660 x174 + 324 x175
       + 158 x176 + 666 x177 + 348 x179 + 904 x180 + 432 x181 + 366 x182
       + 406 x183 + 346 x184 + 148 x185 + 222 x186 + 510 x187 + 348 x188
       + 670 x190 + 800 x191 + 436 x192 + 266 x193 + 372 x194 + 818 x195
       + 748 x196 + 274 x197 + 904 x198 + 670 x199 + 578 x201 + 346 x202
       + 228 x203 + 130 x204 + 350 x205 + 406 x206 + 414 x207 + 556 x208
       + 222 x209 + 492 x210 + 128 x211 + 474 x212 + 704 x213 + 720 x214
       + 456 x215 + 228 x216 + 650 x217 + 142 x218 + 450 x219 + 910 x220
       + 624 x221 + 320 x222 + 376 x223 + 508 x224 + 818 x225 + 656 x226
       + 164 x227 + 790 x228 + 672 x229 + 296 x230 + 624 x231 + 320 x232
       + 376 x233 + 508 x234 + 818 x235 + 656 x236 + 164 x237 + 790 x238
       + 672 x239 + 296 x240 + 578 x241 + 750 x242 + 0.00999999977648258 x243
       + 0.00999999977648258 x244 + 0.00999999977648258 x245
       + 0.00999999977648258 x246 + 0.00999999977648258 x247
       + 0.00999999977648258 x248 + 0.00999999977648258 x249
       + 0.00999999977648258 x250 + 0.00999999977648258 x251
       + 0.00999999977648258 x252 + 0.0199999995529652 x253
       + 0.0199999995529652 x254 + 0.0199999995529652 x255
       + 0.0199999995529652 x256 + 0.0199999995529652 x257
       + 0.0199999995529652 x258 + 0.0199999995529652 x259
       + 0.0199999995529652 x260 + 0.0199999995529652 x261
       + 0.0199999995529652 x262
Subject To
 c1:   x221 + x222 + x223 + x224 + x225 + x226 + x227 + x228 + x229 + x230
       + x241  = 1
 c2:   x201 + x202 + x203 + x204 + x205 + x206 + x207 + x208 + x209 + x210
       + x241  = 1
 c3:   x231 + x232 + x233 + x234 + x235 + x236 + x237 + x238 + x239 + x240
       + x242  = 1
 c4:   x211 + x212 + x213 + x214 + x215 + x216 + x217 + x218 + x219 + x220
       + x242  = 1
 c5:   - x2 - x3 - x4 - x5 - x6 - x7 - x8 - x9 - x10 + x11 + x21 + x31 + x41
       + x51 + x61 + x71 + x81 + x91 + x201 - x221  = 0
 c6:   - x102 - x103 - x104 - x105 - x106 - x107 - x108 - x109 - x110 + x111
       + x121 + x131 + x141 + x151 + x161 + x171 + x181 + x191 + x211 - x231
        = 0
 c7:   x2 - x11 - x13 - x14 - x15 - x16 - x17 - x18 - x19 - x20 + x22 + x32
       + x42 + x52 + x62 + x72 + x82 + x92 + x202 - x222  = 0
 c8:   x102 - x111 - x113 - x114 - x115 - x116 - x117 - x118 - x119 - x120
       + x122 + x132 + x142 + x152 + x162 + x172 + x182 + x192 + x212 - x232
        = 0
 c9:   x3 + x13 - x21 - x22 - x24 - x25 - x26 - x27 - x28 - x29 - x30 + x33
       + x43 + x53 + x63 + x73 + x83 + x93 + x203 - x223  = 0
 c10:  x103 + x113 - x121 - x122 - x124 - x125 - x126 - x127 - x128 - x129
       - x130 + x133 + x143 + x153 + x163 + x173 + x183 + x193 + x213 - x233
        = 0
 c11:  x4 + x14 + x24 - x31 - x32 - x33 - x35 - x36 - x37 - x38 - x39 - x40
       + x44 + x54 + x64 + x74 + x84 + x94 + x204 - x224  = 0
 c12:  x104 + x114 + x124 - x131 - x132 - x133 - x135 - x136 - x137 - x138
       - x139 - x140 + x144 + x154 + x164 + x174 + x184 + x194 + x214 - x234
        = 0
 c13:  x5 + x15 + x25 + x35 - x41 - x42 - x43 - x44 - x46 - x47 - x48 - x49
       - x50 + x55 + x65 + x75 + x85 + x95 + x205 - x225  = 0
 c14:  x105 + x115 + x125 + x135 - x141 - x142 - x143 - x144 - x146 - x147
       - x148 - x149 - x150 + x155 + x165 + x175 + x185 + x195 + x215 - x235
        = 0
 c15:  x6 + x16 + x26 + x36 + x46 - x51 - x52 - x53 - x54 - x55 - x57 - x58
       - x59 - x60 + x66 + x76 + x86 + x96 + x206 - x226  = 0
 c16:  x106 + x116 + x126 + x136 + x146 - x151 - x152 - x153 - x154 - x155
       - x157 - x158 - x159 - x160 + x166 + x176 + x186 + x196 + x216 - x236
        = 0
 c17:  x7 + x17 + x27 + x37 + x47 + x57 - x61 - x62 - x63 - x64 - x65 - x66
       - x68 - x69 - x70 + x77 + x87 + x97 + x207 - x227  = 0
 c18:  x107 + x117 + x127 + x137 + x147 + x157 - x161 - x162 - x163 - x164
       - x165 - x166 - x168 - x169 - x170 + x177 + x187 + x197 + x217 - x237
        = 0
 c19:  x8 + x18 + x28 + x38 + x48 + x58 + x68 - x71 - x72 - x73 - x74 - x75
       - x76 - x77 - x79 - x80 + x88 + x98 + x208 - x228  = 0
 c20:  x108 + x118 + x128 + x138 + x148 + x158 + x168 - x171 - x172 - x173
       - x174 - x175 - x176 - x177 - x179 - x180 + x188 + x198 + x218 - x238
        = 0
 c21:  x9 + x19 + x29 + x39 + x49 + x59 + x69 + x79 - x81 - x82 - x83 - x84
       - x85 - x86 - x87 - x88 - x90 + x99 + x209 - x229  = 0
 c22:  x109 + x119 + x129 + x139 + x149 + x159 + x169 + x179 - x181 - x182
       - x183 - x184 - x185 - x186 - x187 - x188 - x190 + x199 + x219 - x239
        = 0
 c23:  x10 + x20 + x30 + x40 + x50 + x60 + x70 + x80 + x90 - x91 - x92 - x93
       - x94 - x95 - x96 - x97 - x98 - x99 + x210 - x230  = 0
 c24:  x110 + x120 + x130 + x140 + x150 + x160 + x170 + x180 + x190 - x191
       - x192 - x193 - x194 - x195 - x196 - x197 - x198 - x199 + x220 - x240
        = 0
 c25:  x1  = 0
 c26:  x101  = 0
 c27:  x12  = 0
 c28:  x112  = 0
 c29:  x23  = 0
 c30:  x123  = 0
 c31:  x34  = 0
 c32:  x134  = 0
 c33:  x45  = 0
 c34:  x145  = 0
 c35:  x56  = 0
 c36:  x156  = 0
 c37:  x67  = 0
 c38:  x167  = 0
 c39:  x78  = 0
 c40:  x178  = 0
 c41:  x89  = 0
 c42:  x189  = 0
 c43:  x100  = 0
 c44:  x200  = 0
 c45:  x1 + x11 + x21 + x31 + x41 + x51 + x61 + x71 + x81 + x91 + x101 + x111
       + x121 + x131 + x141 + x151 + x161 + x171 + x181 + x191 + x201 + x211
        = 1
 c46:  x1 + x2 + x3 + x4 + x5 + x6 + x7 + x8 + x9 + x10 + x101 + x102 + x103
       + x104 + x105 + x106 + x107 + x108 + x109 + x110 + x221 + x231  = 1
 c47:  x2 + x12 + x22 + x32 + x42 + x52 + x62 + x72 + x82 + x92 + x102 + x112
       + x122 + x132 + x142 + x152 + x162 + x172 + x182 + x192 + x202 + x212
        = 1
 c48:  x11 + x12 + x13 + x14 + x15 + x16 + x17 + x18 + x19 + x20 + x111 + x112
       + x113 + x114 + x115 + x116 + x117 + x118 + x119 + x120 + x222 + x232
        = 1
 c49:  x3 + x13 + x23 + x33 + x43 + x53 + x63 + x73 + x83 + x93 + x103 + x113
       + x123 + x133 + x143 + x153 + x163 + x173 + x183 + x193 + x203 + x213
        = 1
 c50:  x21 + x22 + x23 + x24 + x25 + x26 + x27 + x28 + x29 + x30 + x121 + x122
       + x123 + x124 + x125 + x126 + x127 + x128 + x129 + x130 + x223 + x233
        = 1
 c51:  x4 + x14 + x24 + x34 + x44 + x54 + x64 + x74 + x84 + x94 + x104 + x114
       + x124 + x134 + x144 + x154 + x164 + x174 + x184 + x194 + x204 + x214
        = 1
 c52:  x31 + x32 + x33 + x34 + x35 + x36 + x37 + x38 + x39 + x40 + x131 + x132
       + x133 + x134 + x135 + x136 + x137 + x138 + x139 + x140 + x224 + x234
        = 1
 c53:  x5 + x15 + x25 + x35 + x45 + x55 + x65 + x75 + x85 + x95 + x105 + x115
       + x125 + x135 + x145 + x155 + x165 + x175 + x185 + x195 + x205 + x215
        = 1
 c54:  x41 + x42 + x43 + x44 + x45 + x46 + x47 + x48 + x49 + x50 + x141 + x142
       + x143 + x144 + x145 + x146 + x147 + x148 + x149 + x150 + x225 + x235
        = 1
 c55:  x6 + x16 + x26 + x36 + x46 + x56 + x66 + x76 + x86 + x96 + x106 + x116
       + x126 + x136 + x146 + x156 + x166 + x176 + x186 + x196 + x206 + x216
        = 1
 c56:  x51 + x52 + x53 + x54 + x55 + x56 + x57 + x58 + x59 + x60 + x151 + x152
       + x153 + x154 + x155 + x156 + x157 + x158 + x159 + x160 + x226 + x236
        = 1
 c57:  x7 + x17 + x27 + x37 + x47 + x57 + x67 + x77 + x87 + x97 + x107 + x117
       + x127 + x137 + x147 + x157 + x167 + x177 + x187 + x197 + x207 + x217
        = 1
 c58:  x61 + x62 + x63 + x64 + x65 + x66 + x67 + x68 + x69 + x70 + x161 + x162
       + x163 + x164 + x165 + x166 + x167 + x168 + x169 + x170 + x227 + x237
        = 1
 c59:  x8 + x18 + x28 + x38 + x48 + x58 + x68 + x78 + x88 + x98 + x108 + x118
       + x128 + x138 + x148 + x158 + x168 + x178 + x188 + x198 + x208 + x218
        = 1
 c60:  x71 + x72 + x73 + x74 + x75 + x76 + x77 + x78 + x79 + x80 + x171 + x172
       + x173 + x174 + x175 + x176 + x177 + x178 + x179 + x180 + x228 + x238
        = 1
 c61:  x9 + x19 + x29 + x39 + x49 + x59 + x69 + x79 + x89 + x99 + x109 + x119
       + x129 + x139 + x149 + x159 + x169 + x179 + x189 + x199 + x209 + x219
        = 1
 c62:  x81 + x82 + x83 + x84 + x85 + x86 + x87 + x88 + x89 + x90 + x181 + x182
       + x183 + x184 + x185 + x186 + x187 + x188 + x189 + x190 + x229 + x239
        = 1
 c63:  x10 + x20 + x30 + x40 + x50 + x60 + x70 + x80 + x90 + x100 + x110 + x120
       + x130 + x140 + x150 + x160 + x170 + x180 + x190 + x200 + x210 + x220
        = 1
 c64:  x91 + x92 + x93 + x94 + x95 + x96 + x97 + x98 + x99 + x100 + x191 + x192
       + x193 + x194 + x195 + x196 + x197 + x198 + x199 + x200 + x230 + x240
        = 1
 c65:  x1 - x2 + x11 - x12 + x21 - x22 + x31 - x32 + x41 - x42 + x51 - x52
       + x61 - x62 + x71 - x72 + x81 - x82 + x91 - x92 + x201  = 0
 c66:  x3 - x4 + x13 - x14 + x23 - x24 + x33 - x34 + x43 - x44 + x53 - x54
       + x63 - x64 + x73 - x74 + x83 - x84 + x93 - x94 + x203  = 0
 c67:  x5 - x6 + x15 - x16 + x25 - x26 + x35 - x36 + x45 - x46 + x55 - x56
       + x65 - x66 + x75 - x76 + x85 - x86 + x95 - x96 + x205  = 0
 c68:  x7 - x8 + x17 - x18 + x27 - x28 + x37 - x38 + x47 - x48 + x57 - x58
       + x67 - x68 + x77 - x78 + x87 - x88 + x97 - x98 + x207  = 0
 c69:  x9 - x10 + x19 - x20 + x29 - x30 + x39 - x40 + x49 - x50 + x59 - x60
       + x69 - x70 + x79 - x80 + x89 - x90 + x99 - x100 + x209  = 0
 c70:  x101 - x102 + x111 - x112 + x121 - x122 + x131 - x132 + x141 - x142
       + x151 - x152 + x161 - x162 + x171 - x172 + x181 - x182 + x191 - x192
       + x211  = 0
 c71:  x103 - x104 + x113 - x114 + x123 - x124 + x133 - x134 + x143 - x144
       + x153 - x154 + x163 - x164 + x173 - x174 + x183 - x184 + x193 - x194
       + x213  = 0
 c72:  x105 - x106 + x115 - x116 + x125 - x126 + x135 - x136 + x145 - x146
       + x155 - x156 + x165 - x166 + x175 - x176 + x185 - x186 + x195 - x196
       + x215  = 0
 c73:  x107 - x108 + x117 - x118 + x127 - x128 + x137 - x138 + x147 - x148
       + x157 - x158 + x167 - x168 + x177 - x178 + x187 - x188 + x197 - x198
       + x217  = 0
 c74:  x109 - x110 + x119 - x120 + x129 - x130 + x139 - x140 + x149 - x150
       + x159 - x160 + x169 - x170 + x179 - x180 + x189 - x190 + x199 - x200
       + x219  = 0
 c75:  - 216000 x1 - 216000 x101 >= -216000
 c76:  - 216000 x1 - 216000 x101 + x243 >= -216000
 c77:  - 216000 x1 - 216000 x101 + x253 - x263 >= -228351
 c78:  - 216000 x11 - 216000 x111 + x263 - x264 >= -215818
 c79:  - 216000 x11 - 216000 x111 + x243 - x263 + x264 >= -216182
 c80:  - 216000 x11 - 216000 x111 + x253 - x263 >= -228351
 c81:  - 216000 x21 - 216000 x121 + x263 - x265 >= -215693
 c82:  - 216000 x21 - 216000 x121 + x243 - x263 + x265 >= -216307
 c83:  - 216000 x21 - 216000 x121 + x253 - x263 >= -228351
 c84:  - 216000 x31 - 216000 x131 + x263 - x266 >= -215676
 c85:  - 216000 x31 - 216000 x131 + x243 - x263 + x266 >= -216324
 c86:  - 216000 x31 - 216000 x131 + x253 - x263 >= -228351
 c87:  - 216000 x41 - 216000 x141 + x263 - x267 >= -215759
 c88:  - 216000 x41 - 216000 x141 + x243 - x263 + x267 >= -216241
 c89:  - 216000 x41 - 216000 x141 + x253 - x263 >= -228351
 c90:  - 216000 x51 - 216000 x151 + x263 - x268 >= -215890
 c91:  - 216000 x51 - 216000 x151 + x243 - x263 + x268 >= -216110
 c92:  - 216000 x51 - 216000 x151 + x253 - x263 >= -228351
 c93:  - 216000 x61 - 216000 x161 + x263 - x269 >= -215734
 c94:  - 216000 x61 - 216000 x161 + x243 - x263 + x269 >= -216266
 c95:  - 216000 x61 - 216000 x161 + x253 - x263 >= -228351
 c96:  - 216000 x71 - 216000 x171 + x263 - x270 >= -215887
 c97:  - 216000 x71 - 216000 x171 + x243 - x263 + x270 >= -216113
 c98:  - 216000 x71 - 216000 x171 + x253 - x263 >= -228351
 c99:  - 216000 x81 - 216000 x181 + x263 - x271 >= -215784
 c100: - 216000 x81 - 216000 x181 + x243 - x263 + x271 >= -216216
 c101: - 216000 x81 - 216000 x181 + x253 - x263 >= -228351
 c102: - 216000 x91 - 216000 x191 + x263 - x272 >= -215600
 c103: - 216000 x91 - 216000 x191 + x243 - x263 + x272 >= -216400
 c104: - 216000 x91 - 216000 x191 + x253 - x263 >= -228351
 c105: - 216000 x201 + x263 >= -215711
 c106: - 216000 x201 + x243 - x263 >= -216289
 c107: - 216000 x201 + x253 - x263 >= -228351
 c108: - 216000 x211 + x263 >= -215936
 c109: - 216000 x211 + x243 - x263 >= -216064
 c110: - 216000 x211 + x253 - x263 >= -228351
 c111: x263 >= 3507
 c112: x263 - x264 <= 0
 c113: - 216000 x2 - 216000 x102 - x263 + x264 >= -215818
 c114: - 216000 x2 - 216000 x102 + x244 + x263 - x264 >= -216182
 c115: - 216000 x2 - 216000 x102 + x254 - x264 >= -252997
 c116: - 216000 x12 - 216000 x112 >= -216000
 c117: - 216000 x12 - 216000 x112 + x244 >= -216000
 c118: - 216000 x12 - 216000 x112 + x254 - x264 >= -252997
 c119: - 216000 x22 - 216000 x122 + x264 - x265 >= -215865
 c120: - 216000 x22 - 216000 x122 + x244 - x264 + x265 >= -216135
 c121: - 216000 x22 - 216000 x122 + x254 - x264 >= -252997
 c122: - 216000 x32 - 216000 x132 + x264 - x266 >= -215825
 c123: - 216000 x32 - 216000 x132 + x244 - x264 + x266 >= -216175
 c124: - 216000 x32 - 216000 x132 + x254 - x264 >= -252997
 c125: - 216000 x42 - 216000 x142 + x264 - x267 >= -215748
 c126: - 216000 x42 - 216000 x142 + x244 - x264 + x267 >= -216252
 c127: - 216000 x42 - 216000 x142 + x254 - x264 >= -252997
 c128: - 216000 x52 - 216000 x152 + x264 - x268 >= -215831
 c129: - 216000 x52 - 216000 x152 + x244 - x264 + x268 >= -216169
 c130: - 216000 x52 - 216000 x152 + x254 - x264 >= -252997
 c131: - 216000 x62 - 216000 x162 + x264 - x269 >= -215910
 c132: - 216000 x62 - 216000 x162 + x244 - x264 + x269 >= -216090
 c133: - 216000 x62 - 216000 x162 + x254 - x264 >= -252997
 c134: - 216000 x72 - 216000 x172 + x264 - x270 >= -215758
 c135: - 216000 x72 - 216000 x172 + x244 - x264 + x270 >= -216242
 c136: - 216000 x72 - 216000 x172 + x254 - x264 >= -252997
 c137: - 216000 x82 - 216000 x182 + x264 - x271 >= -215817
 c138: - 216000 x82 - 216000 x182 + x244 - x264 + x271 >= -216183
 c139: - 216000 x82 - 216000 x182 + x254 - x264 >= -252997
 c140: - 216000 x92 - 216000 x192 + x264 - x272 >= -215782
 c141: - 216000 x92 - 216000 x192 + x244 - x264 + x272 >= -216218
 c142: - 216000 x92 - 216000 x192 + x254 - x264 >= -252997
 c143: - 216000 x202 + x264 >= -215827
 c144: - 216000 x202 + x244 - x264 >= -216173
 c145: - 216000 x202 + x254 - x264 >= -252997
 c146: - 216000 x212 + x264 >= -215763
 c147: - 216000 x212 + x244 - x264 >= -216237
 c148: - 216000 x212 + x254 - x264 >= -252997
 c149: x264 >= 32761
 c150: - 216000 x3 - 216000 x103 - x263 + x265 >= -215693
 c151: - 216000 x3 - 216000 x103 + x245 + x263 - x265 >= -216307
 c152: - 216000 x3 - 216000 x103 + x255 - x265 >= -231305
 c153: - 216000 x13 - 216000 x113 - x264 + x265 >= -215865
 c154: - 216000 x13 - 216000 x113 + x245 + x264 - x265 >= -216135
 c155: - 216000 x13 - 216000 x113 + x255 - x265 >= -231305
 c156: - 216000 x23 - 216000 x123 >= -216000
 c157: - 216000 x23 - 216000 x123 + x245 >= -216000
 c158: - 216000 x23 - 216000 x123 + x255 - x265 >= -231305
 c159: - 216000 x33 - 216000 x133 + x265 - x266 >= -215935
 c160: - 216000 x33 - 216000 x133 + x245 - x265 + x266 >= -216065
 c161: - 216000 x33 - 216000 x133 + x255 - x265 >= -231305
 c162: - 216000 x43 - 216000 x143 + x265 - x267 >= -215724
 c163: - 216000 x43 - 216000 x143 + x245 - x265 + x267 >= -216276
 c164: - 216000 x43 - 216000 x143 + x255 - x265 >= -231305
 c165: - 216000 x53 - 216000 x153 + x265 - x268 >= -215744
 c166: - 216000 x53 - 216000 x153 + x245 - x265 + x268 >= -216256
 c167: - 216000 x53 - 216000 x153 + x255 - x265 >= -231305
 c168: - 216000 x63 - 216000 x163 + x265 - x269 >= -215885
 c169: - 216000 x63 - 216000 x163 + x245 - x265 + x269 >= -216115
 c170: - 216000 x63 - 216000 x163 + x255 - x265 >= -231305
 c171: - 216000 x73 - 216000 x173 + x265 - x270 >= -215664
 c172: - 216000 x73 - 216000 x173 + x245 - x265 + x270 >= -216336
 c173: - 216000 x73 - 216000 x173 + x255 - x265 >= -231305
 c174: - 216000 x83 - 216000 x183 + x265 - x271 >= -215797
 c175: - 216000 x83 - 216000 x183 + x245 - x265 + x271 >= -216203
 c176: - 216000 x83 - 216000 x183 + x255 - x265 >= -231305
 c177: - 216000 x93 - 216000 x193 + x265 - x272 >= -215867
 c178: - 216000 x93 - 216000 x193 + x245 - x265 + x272 >= -216133
 c179: - 216000 x93 - 216000 x193 + x255 - x265 >= -231305
 c180: - 216000 x203 + x265 >= -215886
 c181: - 216000 x203 + x245 - x265 >= -216114
 c182: - 216000 x203 + x255 - x265 >= -231305
 c183: - 216000 x213 + x265 >= -215648
 c184: - 216000 x213 + x245 - x265 >= -216352
 c185: - 216000 x213 + x255 - x265 >= -231305
 c186: x265 >= 10113
 c187: x265 - x266 <= 0
 c188: - 216000 x4 - 216000 x104 - x263 + x266 >= -215676
 c189: - 216000 x4 - 216000 x104 + x246 + x263 - x266 >= -216324
 c190: - 216000 x4 - 216000 x104 + x256 - x266 >= -293114
 c191: - 216000 x14 - 216000 x114 - x264 + x266 >= -215825
 c192: - 216000 x14 - 216000 x114 + x246 + x264 - x266 >= -216175
 c193: - 216000 x14 - 216000 x114 + x256 - x266 >= -293114
 c194: - 216000 x24 - 216000 x124 - x265 + x266 >= -215935
 c195: - 216000 x24 - 216000 x124 + x246 + x265 - x266 >= -216065
 c196: - 216000 x24 - 216000 x124 + x256 - x266 >= -293114
 c197: - 216000 x34 - 216000 x134 >= -216000
 c198: - 216000 x34 - 216000 x134 + x246 >= -216000
 c199: - 216000 x34 - 216000 x134 + x256 - x266 >= -293114
 c200: - 216000 x44 - 216000 x144 + x266 - x267 >= -215760
 c201: - 216000 x44 - 216000 x144 + x246 - x266 + x267 >= -216240
 c202: - 216000 x44 - 216000 x144 + x256 - x266 >= -293114
 c203: - 216000 x54 - 216000 x154 + x266 - x268 >= -215747
 c204: - 216000 x54 - 216000 x154 + x246 - x266 + x268 >= -216253
 c205: - 216000 x54 - 216000 x154 + x256 - x266 >= -293114
 c206: - 216000 x64 - 216000 x164 + x266 - x269 >= -215823
 c207: - 216000 x64 - 216000 x164 + x246 - x266 + x269 >= -216177
 c208: - 216000 x64 - 216000 x164 + x256 - x266 >= -293114
 c209: - 216000 x74 - 216000 x174 + x266 - x270 >= -215670
 c210: - 216000 x74 - 216000 x174 + x246 - x266 + x270 >= -216330
 c211: - 216000 x74 - 216000 x174 + x256 - x266 >= -293114
 c212: - 216000 x84 - 216000 x184 + x266 - x271 >= -215827
 c213: - 216000 x84 - 216000 x184 + x246 - x266 + x271 >= -216173
 c214: - 216000 x84 - 216000 x184 + x256 - x266 >= -293114
 c215: - 216000 x94 - 216000 x194 + x266 - x272 >= -215814
 c216: - 216000 x94 - 216000 x194 + x246 - x266 + x272 >= -216186
 c217: - 216000 x94 - 216000 x194 + x256 - x266 >= -293114
 c218: - 216000 x204 + x266 >= -215935
 c219: - 216000 x204 + x246 - x266 >= -216065
 c220: - 216000 x204 + x256 - x266 >= -293114
 c221: - 216000 x214 + x266 >= -215640
 c222: - 216000 x214 + x246 - x266 >= -216360
 c223: - 216000 x214 + x256 - x266 >= -293114
 c224: x266 >= 68346
 c225: - 216000 x5 - 216000 x105 - x263 + x267 >= -215759
 c226: - 216000 x5 - 216000 x105 + x247 + x263 - x267 >= -216241
 c227: - 216000 x5 - 216000 x105 + x257 - x267 >= -229810
 c228: - 216000 x15 - 216000 x115 - x264 + x267 >= -215748
 c229: - 216000 x15 - 216000 x115 + x247 + x264 - x267 >= -216252
 c230: - 216000 x15 - 216000 x115 + x257 - x267 >= -229810
 c231: - 216000 x25 - 216000 x125 - x265 + x267 >= -215724
 c232: - 216000 x25 - 216000 x125 + x247 + x265 - x267 >= -216276
 c233: - 216000 x25 - 216000 x125 + x257 - x267 >= -229810
 c234: - 216000 x35 - 216000 x135 - x266 + x267 >= -215760
 c235: - 216000 x35 - 216000 x135 + x247 + x266 - x267 >= -216240
 c236: - 216000 x35 - 216000 x135 + x257 - x267 >= -229810
 c237: - 216000 x45 - 216000 x145 >= -216000
 c238: - 216000 x45 - 216000 x145 + x247 >= -216000
 c239: - 216000 x45 - 216000 x145 + x257 - x267 >= -229810
 c240: - 216000 x55 - 216000 x155 + x267 - x268 >= -215868
 c241: - 216000 x55 - 216000 x155 + x247 - x267 + x268 >= -216132
 c242: - 216000 x55 - 216000 x155 + x257 - x267 >= -229810
 c243: - 216000 x65 - 216000 x165 + x267 - x269 >= -215671
 c244: - 216000 x65 - 216000 x165 + x247 - x267 + x269 >= -216329
 c245: - 216000 x65 - 216000 x165 + x257 - x267 >= -229810
 c246: - 216000 x75 - 216000 x175 + x267 - x270 >= -215838
 c247: - 216000 x75 - 216000 x175 + x247 - x267 + x270 >= -216162
 c248: - 216000 x75 - 216000 x175 + x257 - x267 >= -229810
 c249: - 216000 x85 - 216000 x185 + x267 - x271 >= -215926
 c250: - 216000 x85 - 216000 x185 + x247 - x267 + x271 >= -216074
 c251: - 216000 x85 - 216000 x185 + x257 - x267 >= -229810
 c252: - 216000 x95 - 216000 x195 + x267 - x272 >= -215591
 c253: - 216000 x95 - 216000 x195 + x247 - x267 + x272 >= -216409
 c254: - 216000 x95 - 216000 x195 + x257 - x267 >= -229810
 c255: - 216000 x205 + x267 >= -215825
 c256: - 216000 x205 + x247 - x267 >= -216175
 c257: - 216000 x205 + x257 - x267 >= -229810
 c258: - 216000 x215 + x267 >= -215772
 c259: - 216000 x215 + x247 - x267 >= -216228
 c260: - 216000 x215 + x257 - x267 >= -229810
 c261: x267 >= 4082
 c262: x267 - x268 <= 0
 c263: - 216000 x6 - 216000 x106 - x263 + x268 >= -215890
 c264: - 216000 x6 - 216000 x106 + x248 + x263 - x268 >= -216110
 c265: - 216000 x6 - 216000 x106 + x258 - x268 >= -253433
 c266: - 216000 x16 - 216000 x116 - x264 + x268 >= -215831
 c267: - 216000 x16 - 216000 x116 + x248 + x264 - x268 >= -216169
 c268: - 216000 x16 - 216000 x116 + x258 - x268 >= -253433
 c269: - 216000 x26 - 216000 x126 - x265 + x268 >= -215744
 c270: - 216000 x26 - 216000 x126 + x248 + x265 - x268 >= -216256
 c271: - 216000 x26 - 216000 x126 + x258 - x268 >= -253433
 c272: - 216000 x36 - 216000 x136 - x266 + x268 >= -215747
 c273: - 216000 x36 - 216000 x136 + x248 + x266 - x268 >= -216253
 c274: - 216000 x36 - 216000 x136 + x258 - x268 >= -253433
 c275: - 216000 x46 - 216000 x146 - x267 + x268 >= -215868
 c276: - 216000 x46 - 216000 x146 + x248 + x267 - x268 >= -216132
 c277: - 216000 x46 - 216000 x146 + x258 - x268 >= -253433
 c278: - 216000 x56 - 216000 x156 >= -216000
 c279: - 216000 x56 - 216000 x156 + x248 >= -216000
 c280: - 216000 x56 - 216000 x156 + x258 - x268 >= -253433
 c281: - 216000 x66 - 216000 x166 + x268 - x269 >= -215740
 c282: - 216000 x66 - 216000 x166 + x248 - x268 + x269 >= -216260
 c283: - 216000 x66 - 216000 x166 + x258 - x268 >= -253433
 c284: - 216000 x76 - 216000 x176 + x268 - x270 >= -215921
 c285: - 216000 x76 - 216000 x176 + x248 - x268 + x270 >= -216079
 c286: - 216000 x76 - 216000 x176 + x258 - x268 >= -253433
 c287: - 216000 x86 - 216000 x186 + x268 - x271 >= -215889
 c288: - 216000 x86 - 216000 x186 + x248 - x268 + x271 >= -216111
 c289: - 216000 x86 - 216000 x186 + x258 - x268 >= -253433
 c290: - 216000 x96 - 216000 x196 + x268 - x272 >= -215626
 c291: - 216000 x96 - 216000 x196 + x248 - x268 + x272 >= -216374
 c292: - 216000 x96 - 216000 x196 + x258 - x268 >= -253433
 c293: - 216000 x206 + x268 >= -215797
 c294: - 216000 x206 + x248 - x268 >= -216203
 c295: - 216000 x206 + x258 - x268 >= -253433
 c296: - 216000 x216 + x268 >= -215886
 c297: - 216000 x216 + x248 - x268 >= -216114
 c298: - 216000 x216 + x258 - x268 >= -253433
 c299: x268 >= 32977
 c300: - 216000 x7 - 216000 x107 - x263 + x269 >= -215734
 c301: - 216000 x7 - 216000 x107 + x249 + x263 - x269 >= -216266
 c302: - 216000 x7 - 216000 x107 + x259 - x269 >= -248136
 c303: - 216000 x17 - 216000 x117 - x264 + x269 >= -215910
 c304: - 216000 x17 - 216000 x117 + x249 + x264 - x269 >= -216090
 c305: - 216000 x17 - 216000 x117 + x259 - x269 >= -248136
 c306: - 216000 x27 - 216000 x127 - x265 + x269 >= -215885
 c307: - 216000 x27 - 216000 x127 + x249 + x265 - x269 >= -216115
 c308: - 216000 x27 - 216000 x127 + x259 - x269 >= -248136
 c309: - 216000 x37 - 216000 x137 - x266 + x269 >= -215823
 c310: - 216000 x37 - 216000 x137 + x249 + x266 - x269 >= -216177
 c311: - 216000 x37 - 216000 x137 + x259 - x269 >= -248136
 c312: - 216000 x47 - 216000 x147 - x267 + x269 >= -215671
 c313: - 216000 x47 - 216000 x147 + x249 + x267 - x269 >= -216329
 c314: - 216000 x47 - 216000 x147 + x259 - x269 >= -248136
 c315: - 216000 x57 - 216000 x157 - x268 + x269 >= -215740
 c316: - 216000 x57 - 216000 x157 + x249 + x268 - x269 >= -216260
 c317: - 216000 x57 - 216000 x157 + x259 - x269 >= -248136
 c318: - 216000 x67 - 216000 x167 >= -216000
 c319: - 216000 x67 - 216000 x167 + x249 >= -216000
 c320: - 216000 x67 - 216000 x167 + x259 - x269 >= -248136
 c321: - 216000 x77 - 216000 x177 + x269 - x270 >= -215667
 c322: - 216000 x77 - 216000 x177 + x249 - x269 + x270 >= -216333
 c323: - 216000 x77 - 216000 x177 + x259 - x269 >= -248136
 c324: - 216000 x87 - 216000 x187 + x269 - x271 >= -215745
 c325: - 216000 x87 - 216000 x187 + x249 - x269 + x271 >= -216255
 c326: - 216000 x87 - 216000 x187 + x259 - x269 >= -248136
 c327: - 216000 x97 - 216000 x197 + x269 - x272 >= -215863
 c328: - 216000 x97 - 216000 x197 + x249 - x269 + x272 >= -216137
 c329: - 216000 x97 - 216000 x197 + x259 - x269 >= -248136
 c330: - 216000 x207 + x269 >= -215793
 c331: - 216000 x207 + x249 - x269 >= -216207
 c332: - 216000 x207 + x259 - x269 >= -248136
 c333: - 216000 x217 + x269 >= -215675
 c334: - 216000 x217 + x249 - x269 >= -216325
 c335: - 216000 x217 + x259 - x269 >= -248136
 c336: x269 >= 22893
 c337: x269 - x270 <= 0
 c338: - 216000 x8 - 216000 x108 - x263 + x270 >= -215887
 c339: - 216000 x8 - 216000 x108 + x250 + x263 - x270 >= -216113
 c340: - 216000 x8 - 216000 x108 + x260 - x270 >= -289087
 c341: - 216000 x18 - 216000 x118 - x264 + x270 >= -215758
 c342: - 216000 x18 - 216000 x118 + x250 + x264 - x270 >= -216242
 c343: - 216000 x18 - 216000 x118 + x260 - x270 >= -289087
 c344: - 216000 x28 - 216000 x128 - x265 + x270 >= -215664
 c345: - 216000 x28 - 216000 x128 + x250 + x265 - x270 >= -216336
 c346: - 216000 x28 - 216000 x128 + x260 - x270 >= -289087
 c347: - 216000 x38 - 216000 x138 - x266 + x270 >= -215670
 c348: - 216000 x38 - 216000 x138 + x250 + x266 - x270 >= -216330
 c349: - 216000 x38 - 216000 x138 + x260 - x270 >= -289087
 c350: - 216000 x48 - 216000 x148 - x267 + x270 >= -215838
 c351: - 216000 x48 - 216000 x148 + x250 + x267 - x270 >= -216162
 c352: - 216000 x48 - 216000 x148 + x260 - x270 >= -289087
 c353: - 216000 x58 - 216000 x158 - x268 + x270 >= -215921
 c354: - 216000 x58 - 216000 x158 + x250 + x268 - x270 >= -216079
 c355: - 216000 x58 - 216000 x158 + x260 - x270 >= -289087
 c356: - 216000 x68 - 216000 x168 - x269 + x270 >= -215667
 c357: - 216000 x68 - 216000 x168 + x250 + x269 - x270 >= -216333
 c358: - 216000 x68 - 216000 x168 + x260 - x270 >= -289087
 c359: - 216000 x78 - 216000 x178 >= -216000
 c360: - 216000 x78 - 216000 x178 + x250 >= -216000
 c361: - 216000 x78 - 216000 x178 + x260 - x270 >= -289087
 c362: - 216000 x88 - 216000 x188 + x270 - x271 >= -215826
 c363: - 216000 x88 - 216000 x188 + x250 - x270 + x271 >= -216174
 c364: - 216000 x88 - 216000 x188 + x260 - x270 >= -289087
 c365: - 216000 x98 - 216000 x198 + x270 - x272 >= -215548
 c366: - 216000 x98 - 216000 x198 + x250 - x270 + x272 >= -216452
 c367: - 216000 x98 - 216000 x198 + x260 - x270 >= -289087
 c368: - 216000 x208 + x270 >= -215722
 c369: - 216000 x208 + x250 - x270 >= -216278
 c370: - 216000 x208 + x260 - x270 >= -289087
 c371: - 216000 x218 + x270 >= -215929
 c372: - 216000 x218 + x250 - x270 >= -216071
 c373: - 216000 x218 + x260 - x270 >= -289087
 c374: x270 >= 64940
 c375: - 216000 x9 - 216000 x109 - x263 + x271 >= -215784
 c376: - 216000 x9 - 216000 x109 + x251 + x263 - x271 >= -216216
 c377: - 216000 x9 - 216000 x109 + x261 - x271 >= -224808
 c378: - 216000 x19 - 216000 x119 - x264 + x271 >= -215817
 c379: - 216000 x19 - 216000 x119 + x251 + x264 - x271 >= -216183
 c380: - 216000 x19 - 216000 x119 + x261 - x271 >= -224808
 c381: - 216000 x29 - 216000 x129 - x265 + x271 >= -215797
 c382: - 216000 x29 - 216000 x129 + x251 + x265 - x271 >= -216203
 c383: - 216000 x29 - 216000 x129 + x261 - x271 >= -224808
 c384: - 216000 x39 - 216000 x139 - x266 + x271 >= -215827
 c385: - 216000 x39 - 216000 x139 + x251 + x266 - x271 >= -216173
 c386: - 216000 x39 - 216000 x139 + x261 - x271 >= -224808
 c387: - 216000 x49 - 216000 x149 - x267 + x271 >= -215926
 c388: - 216000 x49 - 216000 x149 + x251 + x267 - x271 >= -216074
 c389: - 216000 x49 - 216000 x149 + x261 - x271 >= -224808
 c390: - 216000 x59 - 216000 x159 - x268 + x271 >= -215889
 c391: - 216000 x59 - 216000 x159 + x251 + x268 - x271 >= -216111
 c392: - 216000 x59 - 216000 x159 + x261 - x271 >= -224808
 c393: - 216000 x69 - 216000 x169 - x269 + x271 >= -215745
 c394: - 216000 x69 - 216000 x169 + x251 + x269 - x271 >= -216255
 c395: - 216000 x69 - 216000 x169 + x261 - x271 >= -224808
 c396: - 216000 x79 - 216000 x179 - x270 + x271 >= -215826
 c397: - 216000 x79 - 216000 x179 + x251 + x270 - x271 >= -216174
 c398: - 216000 x79 - 216000 x179 + x261 - x271 >= -224808
 c399: - 216000 x89 - 216000 x189 >= -216000
 c400: - 216000 x89 - 216000 x189 + x251 >= -216000
 c401: - 216000 x89 - 216000 x189 + x261 - x271 >= -224808
 c402: - 216000 x99 - 216000 x199 + x271 - x272 >= -215665
 c403: - 216000 x99 - 216000 x199 + x251 - x271 + x272 >= -216335
 c404: - 216000 x99 - 216000 x199 + x261 - x271 >= -224808
 c405: - 216000 x209 + x271 >= -215889
 c406: - 216000 x209 + x251 - x271 >= -216111
 c407: - 216000 x209 + x261 - x271 >= -224808
 c408: - 216000 x219 + x271 >= -215775
 c409: - 216000 x219 + x251 - x271 >= -216225
 c410: - 216000 x219 + x261 - x271 >= -224808
 c411: x271 >= 2216
 c412: x271 - x272 <= 0
 c413: - 216000 x10 - 216000 x110 - x263 + x272 >= -215600
 c414: - 216000 x10 - 216000 x110 + x252 + x263 - x272 >= -216400
 c415: - 216000 x10 - 216000 x110 + x262 - x272 >= -275082
 c416: - 216000 x20 - 216000 x120 - x264 + x272 >= -215782
 c417: - 216000 x20 - 216000 x120 + x252 + x264 - x272 >= -216218
 c418: - 216000 x20 - 216000 x120 + x262 - x272 >= -275082
 c419: - 216000 x30 - 216000 x130 - x265 + x272 >= -215867
 c420: - 216000 x30 - 216000 x130 + x252 + x265 - x272 >= -216133
 c421: - 216000 x30 - 216000 x130 + x262 - x272 >= -275082
 c422: - 216000 x40 - 216000 x140 - x266 + x272 >= -215814
 c423: - 216000 x40 - 216000 x140 + x252 + x266 - x272 >= -216186
 c424: - 216000 x40 - 216000 x140 + x262 - x272 >= -275082
 c425: - 216000 x50 - 216000 x150 - x267 + x272 >= -215591
 c426: - 216000 x50 - 216000 x150 + x252 + x267 - x272 >= -216409
 c427: - 216000 x50 - 216000 x150 + x262 - x272 >= -275082
 c428: - 216000 x60 - 216000 x160 - x268 + x272 >= -215626
 c429: - 216000 x60 - 216000 x160 + x252 + x268 - x272 >= -216374
 c430: - 216000 x60 - 216000 x160 + x262 - x272 >= -275082
 c431: - 216000 x70 - 216000 x170 - x269 + x272 >= -215863
 c432: - 216000 x70 - 216000 x170 + x252 + x269 - x272 >= -216137
 c433: - 216000 x70 - 216000 x170 + x262 - x272 >= -275082
 c434: - 216000 x80 - 216000 x180 - x270 + x272 >= -215548
 c435: - 216000 x80 - 216000 x180 + x252 + x270 - x272 >= -216452
 c436: - 216000 x80 - 216000 x180 + x262 - x272 >= -275082
 c437: - 216000 x90 - 216000 x190 - x271 + x272 >= -215665
 c438: - 216000 x90 - 216000 x190 + x252 + x271 - x272 >= -216335
 c439: - 216000 x90 - 216000 x190 + x262 - x272 >= -275082
 c440: - 216000 x100 - 216000 x200 >= -216000
 c441: - 216000 x100 - 216000 x200 + x252 >= -216000
 c442: - 216000 x100 - 216000 x200 + x262 - x272 >= -275082
 c443: - 216000 x210 + x272 >= -215754
 c444: - 216000 x210 + x252 - x272 >= -216246
 c445: - 216000 x210 + x262 - x272 >= -275082
 c446: - 216000 x220 + x272 >= -215545
 c447: - 216000 x220 + x252 - x272 >= -216455
 c448: - 216000 x220 + x262 - x272 >= -275082
 c449: x272 >= 51930
Bounds
 0 <= x1 <= 1
 0 <= x2 <= 1
 0 <= x3 <= 1
 0 <= x4 <= 1
 0 <= x5 <= 1
 0 <= x6 <= 1
 0 <= x7 <= 1
 0 <= x8 <= 1
 0 <= x9 <= 1
 0 <= x10 <= 1
 0 <= x11 <= 1
 0 <= x12 <= 1
 0 <= x13 <= 1
 0 <= x14 <= 1
 0 <= x15 <= 1
 0 <= x16 <= 1
 0 <= x17 <= 1
 0 <= x18 <= 1
 0 <= x19 <= 1
 0 <= x20 <= 1
 0 <= x21 <= 1
 0 <= x22 <= 1
 0 <= x23 <= 1
 0 <= x24 <= 1
 0 <= x25 <= 1
 0 <= x26 <= 1
 0 <= x27 <= 1
 0 <= x28 <= 1
 0 <= x29 <= 1
 0 <= x30 <= 1
 0 <= x31 <= 1
 0 <= x32 <= 1
 0 <= x33 <= 1
 0 <= x34 <= 1
 0 <= x35 <= 1
 0 <= x36 <= 1
 0 <= x37 <= 1
 0 <= x38 <= 1
 0 <= x39 <= 1
 0 <= x40 <= 1
 0 <= x41 <= 1
 0 <= x42 <= 1
 0 <= x43 <= 1
 0 <= x44 <= 1
 0 <= x45 <= 1
 0 <= x46 <= 1
 0 <= x47 <= 1
 0 <= x48 <= 1
 0 <= x49 <= 1
 0 <= x50 <= 1
 0 <= x51 <= 1
 0 <= x52 <= 1
 0 <= x53 <= 1
 0 <= x54 <= 1
 0 <= x55 <= 1
 0 <= x56 <= 1
 0 <= x57 <= 1
 0 <= x58 <= 1
 0 <= x59 <= 1
 0 <= x60 <= 1
 0 <= x61 <= 1
 0 <= x62 <= 1
 0 <= x63 <= 1
 0 <= x64 <= 1
 0 <= x65 <= 1
 0 <= x66 <= 1
 0 <= x67 <= 1
 0 <= x68 <= 1
 0 <= x69 <= 1
 0 <= x70 <= 1
 0 <= x71 <= 1
 0 <= x72 <= 1
 0 <= x73 <= 1
 0 <= x74 <= 1
 0 <= x75 <= 1
 0 <= x76 <= 1
 0 <= x77 <= 1
 0 <= x78 <= 1
 0 <= x79 <= 1
 0 <= x80 <= 1
 0 <= x81 <= 1
 0 <= x82 <= 1
 0 <= x83 <= 1
 0 <= x84 <= 1
 0 <= x85 <= 1
 0 <= x86 <= 1
 0 <= x87 <= 1
 0 <= x88 <= 1
 0 <= x89 <= 1
 0 <= x90 <= 1
 0 <= x91 <= 1
 0 <= x92 <= 1
 0 <= x93 <= 1
 0 <= x94 <= 1
 0 <= x95 <= 1
 0 <= x96 <= 1
 0 <= x97 <= 1
 0 <= x98 <= 1
 0 <= x99 <= 1
 0 <= x100 <= 1
 0 <= x101 <= 1
 0 <= x102 <= 1
 0 <= x103 <= 1
 0 <= x104 <= 1
 0 <= x105 <= 1
 0 <= x106 <= 1
 0 <= x107 <= 1
 0 <= x108 <= 1
 0 <= x109 <= 1
 0 <= x110 <= 1
 0 <= x111 <= 1
 0 <= x112 <= 1
 0 <= x113 <= 1
 0 <= x114 <= 1
 0 <= x115 <= 1
 0 <= x116 <= 1
 0 <= x117 <= 1
 0 <= x118 <= 1
 0 <= x119 <= 1
 0 <= x120 <= 1
 0 <= x121 <= 1
 0 <= x122 <= 1
 0 <= x123 <= 1
 0 <= x124 <= 1
 0 <= x125 <= 1
 0 <= x126 <= 1
 0 <= x127 <= 1
 0 <= x128 <= 1
 0 <= x129 <= 1
 0 <= x130 <= 1
 0 <= x131 <= 1
 0 <= x132 <= 1
 0 <= x133 <= 1
 0 <= x134 <= 1
 0 <= x135 <= 1
 0 <= x136 <= 1
 0 <= x137 <= 1
 0 <= x138 <= 1
 0 <= x139 <= 1
 0 <= x140 <= 1
 0 <= x141 <= 1
 0 <= x142 <= 1
 0 <= x143 <= 1
 0 <= x144 <= 1
 0 <= x145 <= 1
 0 <= x146 <= 1
 0 <= x147 <= 1
 0 <= x148 <= 1
 0 <= x149 <= 1
 0 <= x150 <= 1
 0 <= x151 <= 1
 0 <= x152 <= 1
 0 <= x153 <= 1
 0 <= x154 <= 1
 0 <= x155 <= 1
 0 <= x156 <= 1
 0 <= x157 <= 1
 0 <= x158 <= 1
 0 <= x159 <= 1
 0 <= x160 <= 1
 0 <= x161 <= 1
 0 <= x162 <= 1
 0 <= x163 <= 1
 0 <= x164 <= 1
 0 <= x165 <= 1
 0 <= x166 <= 1
 0 <= x167 <= 1
 0 <= x168 <= 1
 0 <= x169 <= 1
 0 <= x170 <= 1
 0 <= x171 <= 1
 0 <= x172 <= 1
 0 <= x173 <= 1
 0 <= x174 <= 1
 0 <= x175 <= 1
 0 <= x176 <= 1
 0 <= x177 <= 1
 0 <= x178 <= 1
 0 <= x179 <= 1
 0 <= x180 <= 1
 0 <= x181 <= 1
 0 <= x182 <= 1
 0 <= x183 <= 1
 0 <= x184 <= 1
 0 <= x185 <= 1
 0 <= x186 <= 1
 0 <= x187 <= 1
 0 <= x188 <= 1
 0 <= x189 <= 1
 0 <= x190 <= 1
 0 <= x191 <= 1
 0 <= x192 <= 1
 0 <= x193 <= 1
 0 <= x194 <= 1
 0 <= x195 <= 1
 0 <= x196 <= 1
 0 <= x197 <= 1
 0 <= x198 <= 1
 0 <= x199 <= 1
 0 <= x200 <= 1
 0 <= x201 <= 1
 0 <= x202 <= 1
 0 <= x203 <= 1
 0 <= x204 <= 1
 0 <= x205 <= 1
 0 <= x206 <= 1
 0 <= x207 <= 1
 0 <= x208 <= 1
 0 <= x209 <= 1
 0 <= x210 <= 1
 0 <= x211 <= 1
 0 <= x212 <= 1
 0 <= x213 <= 1
 0 <= x214 <= 1
 0 <= x215 <= 1
 0 <= x216 <= 1
 0 <= x217 <= 1
 0 <= x218 <= 1
 0 <= x219 <= 1
 0 <= x220 <= 1
 0 <= x221 <= 1
 0 <= x222 <= 1
 0 <= x223 <= 1
 0 <= x224 <= 1
 0 <= x225 <= 1
 0 <= x226 <= 1
 0 <= x227 <= 1
 0 <= x228 <= 1
 0 <= x229 <= 1
 0 <= x230 <= 1
 0 <= x231 <= 1
 0 <= x232 <= 1
 0 <= x233 <= 1
 0 <= x234 <= 1
 0 <= x235 <= 1
 0 <= x236 <= 1
 0 <= x237 <= 1
 0 <= x238 <= 1
 0 <= x239 <= 1
 0 <= x240 <= 1
 0 <= x241 <= 1
 0 <= x242 <= 1
 0 <= x243 <= 216000
 0 <= x244 <= 216000
 0 <= x245 <= 216000
 0 <= x246 <= 216000
 0 <= x247 <= 216000
 0 <= x248 <= 216000
 0 <= x249 <= 216000
 0 <= x250 <= 216000
 0 <= x251 <= 216000
 0 <= x252 <= 216000
 0 <= x253 <= 216000
 0 <= x254 <= 216000
 0 <= x255 <= 216000
 0 <= x256 <= 216000
 0 <= x257 <= 216000
 0 <= x258 <= 216000
 0 <= x259 <= 216000
 0 <= x260 <= 216000
 0 <= x261 <= 216000
 0 <= x262 <= 216000
 0 <= x263 <= 216000
 0 <= x264 <= 216000
 0 <= x265 <= 216000
 0 <= x266 <= 216000
 0 <= x267 <= 216000
 0 <= x268 <= 216000
 0 <= x269 <= 216000
 0 <= x270 <= 216000
 0 <= x271 <= 216000
 0 <= x272 <= 216000
Binaries
 x1  x2  x3  x4  x5  x6  x7  x8  x9  x10  x11  x12  x13  x14  x15  x16  x17 
 x18  x19  x20  x21  x22  x23  x24  x25  x26  x27  x28  x29  x30  x31  x32 
 x33  x34  x35  x36  x37  x38  x39  x40  x41  x42  x43  x44  x45  x46  x47 
 x48  x49  x50  x51  x52  x53  x54  x55  x56  x57  x58  x59  x60  x61  x62 
 x63  x64  x65  x66  x67  x68  x69  x70  x71  x72  x73  x74  x75  x76  x77 
 x78  x79  x80  x81  x82  x83  x84  x85  x86  x87  x88  x89  x90  x91  x92 
 x93  x94  x95  x96  x97  x98  x99  x100  x101  x102  x103  x104  x105  x106 
 x107  x108  x109  x110  x111  x112  x113  x114  x115  x116  x117  x118  x119 
 x120  x121  x122  x123  x124  x125  x126  x127  x128  x129  x130  x131  x132 
 x133  x134  x135  x136  x137  x138  x139  x140  x141  x142  x143  x144  x145 
 x146  x147  x148  x149  x150  x151  x152  x153  x154  x155  x156  x157  x158 
 x159  x160  x161  x162  x163  x164  x165  x166  x167  x168  x169  x170  x171 
 x172  x173  x174  x175  x176  x177  x178  x179  x180  x181  x182  x183  x184 
 x185  x186  x187  x188  x189  x190  x191  x192  x193  x194  x195  x196  x197 
 x198  x199  x200  x201  x202  x203  x204  x205  x206  x207  x208  x209  x210 
 x211  x212  x213  x214  x215  x216  x217  x218  x219  x220  x221  x222  x223 
 x224  x225  x226  x227  x228  x229  x230  x231  x232  x233  x234  x235  x236 
 x237  x238  x239  x240  x241  x242 
Generals
 x243  x244  x245  x246  x247  x248  x249  x250  x251  x252  x253  x254  x255 
 x256  x257  x258  x259  x260  x261  x262  x263  x264  x265  x266  x267  x268 
 x269  x270  x271  x272 
End
